p cnf 384 1348
-2 0
-3 0
-4 0
-5 0
-6 0
-7 0
1 0
43 8 0
-43 -8 0
-8 253 0
-9 254 0
-253 254 0
-253 -9 0
-10 255 0
-254 255 0
-254 -10 0
-11 256 0
-255 256 0
-255 -11 0
-12 257 0
-256 257 0
-256 -12 0
-13 258 0
-257 258 0
-257 -13 0
-258 -14 0
-8 1 15 0
-8 1 50 0
-8 15 50 0
-9 2 16 0
-9 2 51 0
-9 16 51 0
-10 3 17 0
-10 3 52 0
-10 17 52 0
-11 4 18 0
-11 4 53 0
-11 18 53 0
-12 5 19 0
-12 5 54 0
-12 19 54 0
-13 6 20 0
-13 6 55 0
-13 20 55 0
-14 7 21 0
-14 7 56 0
-14 21 56 0
-8 -1 -15 -50 0
-9 -2 -16 -51 0
-10 -3 -17 -52 0
-11 -4 -18 -53 0
-12 -5 -19 -54 0
-13 -6 -20 -55 0
-14 -7 -21 -56 0
-15 0
-17 0
-18 0
-19 0
-20 0
-21 0
16 0
9 23 58 0
-9 -23 0
-9 -58 0
-23 -58 0
-22 259 0
-23 260 0
-259 260 0
-259 -23 0
-24 261 0
-260 261 0
-260 -24 0
-25 262 0
-261 262 0
-261 -25 0
-26 263 0
-262 263 0
-262 -26 0
-27 264 0
-263 264 0
-263 -27 0
-264 -28 0
-22 15 29 0
-22 15 64 0
-22 29 64 0
-23 16 30 0
-23 16 65 0
-23 30 65 0
-24 17 31 0
-24 17 66 0
-24 31 66 0
-25 18 32 0
-25 18 67 0
-25 32 67 0
-26 19 33 0
-26 19 68 0
-26 33 68 0
-27 20 34 0
-27 20 69 0
-27 34 69 0
-28 21 35 0
-28 21 70 0
-28 35 70 0
-22 -15 -29 -64 0
-23 -16 -30 -65 0
-24 -17 -31 -66 0
-25 -18 -32 -67 0
-26 -19 -33 -68 0
-27 -20 -34 -69 0
-28 -21 -35 -70 0
-29 265 0
-30 266 0
-265 266 0
-265 -30 0
-31 267 0
-266 267 0
-266 -31 0
-32 268 0
-267 268 0
-267 -32 0
-33 269 0
-268 269 0
-268 -33 0
-34 270 0
-269 270 0
-269 -34 0
-270 -35 0
-29 22 36 0
-29 22 71 0
-29 36 71 0
-30 23 37 0
-30 23 72 0
-30 37 72 0
-31 24 38 0
-31 24 73 0
-31 38 73 0
-32 25 39 0
-32 25 74 0
-32 39 74 0
-33 26 40 0
-33 26 75 0
-33 40 75 0
-34 27 41 0
-34 27 76 0
-34 41 76 0
-35 28 42 0
-35 28 77 0
-35 42 77 0
-29 -22 -36 -71 0
-30 -23 -37 -72 0
-31 -24 -38 -73 0
-32 -25 -39 -74 0
-33 -26 -40 -75 0
-34 -27 -41 -76 0
-35 -28 -42 -77 0
-36 271 0
-37 272 0
-271 272 0
-271 -37 0
-38 273 0
-272 273 0
-272 -38 0
-39 274 0
-273 274 0
-273 -39 0
-40 275 0
-274 275 0
-274 -40 0
-41 276 0
-275 276 0
-275 -41 0
-276 -42 0
-36 78 0
-36 29 0
-37 79 0
-37 30 0
-38 80 0
-38 31 0
-39 81 0
-39 32 0
-40 82 0
-40 33 0
-41 83 0
-41 34 0
-42 84 0
-42 35 0
-43 0
-44 0
-45 0
-47 0
-48 0
-49 0
46 0
88 53 4 0
-88 -53 0
-88 -4 0
-53 -4 0
-50 277 0
-51 278 0
-277 278 0
-277 -51 0
-52 279 0
-278 279 0
-278 -52 0
-53 280 0
-279 280 0
-279 -53 0
-54 281 0
-280 281 0
-280 -54 0
-55 282 0
-281 282 0
-281 -55 0
-282 -56 0
-50 92 57 8 0
-50 92 57 43 0
-50 92 8 43 0
-50 57 8 43 0
-51 93 58 9 0
-51 93 58 44 0
-51 93 9 44 0
-51 58 9 44 0
-52 94 59 10 0
-52 94 59 45 0
-52 94 10 45 0
-52 59 10 45 0
-53 95 60 11 0
-53 95 60 46 0
-53 95 11 46 0
-53 60 11 46 0
-54 96 61 12 0
-54 96 61 47 0
-54 96 12 47 0
-54 61 12 47 0
-55 97 62 13 0
-55 97 62 48 0
-55 97 13 48 0
-55 62 13 48 0
-56 98 63 14 0
-56 98 63 49 0
-56 98 14 49 0
-56 63 14 49 0
-50 -92 -57 -8 0
-50 -92 -57 -43 0
-50 -92 -8 -43 0
-50 -57 -8 -43 0
-51 -93 -58 -9 0
-51 -93 -58 -44 0
-51 -93 -9 -44 0
-51 -58 -9 -44 0
-52 -94 -59 -10 0
-52 -94 -59 -45 0
-52 -94 -10 -45 0
-52 -59 -10 -45 0
-53 -95 -60 -11 0
-53 -95 -60 -46 0
-53 -95 -11 -46 0
-53 -60 -11 -46 0
-54 -96 -61 -12 0
-54 -96 -61 -47 0
-54 -96 -12 -47 0
-54 -61 -12 -47 0
-55 -97 -62 -13 0
-55 -97 -62 -48 0
-55 -97 -13 -48 0
-55 -62 -13 -48 0
-56 -98 -63 -14 0
-56 -98 -63 -49 0
-56 -98 -14 -49 0
-56 -63 -14 -49 0
-57 283 0
-58 284 0
-283 284 0
-283 -58 0
-59 285 0
-284 285 0
-284 -59 0
-60 286 0
-285 286 0
-285 -60 0
-61 287 0
-286 287 0
-286 -61 0
-62 288 0
-287 288 0
-287 -62 0
-288 -63 0
-57 99 64 15 0
-57 99 64 50 0
-57 99 15 50 0
-57 64 15 50 0
-58 100 65 16 0
-58 100 65 51 0
-58 100 16 51 0
-58 65 16 51 0
-59 101 66 17 0
-59 101 66 52 0
-59 101 17 52 0
-59 66 17 52 0
-60 102 67 18 0
-60 102 67 53 0
-60 102 18 53 0
-60 67 18 53 0
-61 103 68 19 0
-61 103 68 54 0
-61 103 19 54 0
-61 68 19 54 0
-62 104 69 20 0
-62 104 69 55 0
-62 104 20 55 0
-62 69 20 55 0
-63 105 70 21 0
-63 105 70 56 0
-63 105 21 56 0
-63 70 21 56 0
-57 -99 -64 -15 0
-57 -99 -64 -50 0
-57 -99 -15 -50 0
-57 -64 -15 -50 0
-58 -100 -65 -16 0
-58 -100 -65 -51 0
-58 -100 -16 -51 0
-58 -65 -16 -51 0
-59 -101 -66 -17 0
-59 -101 -66 -52 0
-59 -101 -17 -52 0
-59 -66 -17 -52 0
-60 -102 -67 -18 0
-60 -102 -67 -53 0
-60 -102 -18 -53 0
-60 -67 -18 -53 0
-61 -103 -68 -19 0
-61 -103 -68 -54 0
-61 -103 -19 -54 0
-61 -68 -19 -54 0
-62 -104 -69 -20 0
-62 -104 -69 -55 0
-62 -104 -20 -55 0
-62 -69 -20 -55 0
-63 -105 -70 -21 0
-63 -105 -70 -56 0
-63 -105 -21 -56 0
-63 -70 -21 -56 0
-64 289 0
-65 290 0
-289 290 0
-289 -65 0
-66 291 0
-290 291 0
-290 -66 0
-67 292 0
-291 292 0
-291 -67 0
-68 293 0
-292 293 0
-292 -68 0
-69 294 0
-293 294 0
-293 -69 0
-294 -70 0
-64 106 71 22 0
-64 106 71 57 0
-64 106 22 57 0
-64 71 22 57 0
-65 107 72 23 0
-65 107 72 58 0
-65 107 23 58 0
-65 72 23 58 0
-66 108 73 24 0
-66 108 73 59 0
-66 108 24 59 0
-66 73 24 59 0
-67 109 74 25 0
-67 109 74 60 0
-67 109 25 60 0
-67 74 25 60 0
-68 110 75 26 0
-68 110 75 61 0
-68 110 26 61 0
-68 75 26 61 0
-69 111 76 27 0
-69 111 76 62 0
-69 111 27 62 0
-69 76 27 62 0
-70 112 77 28 0
-70 112 77 63 0
-70 112 28 63 0
-70 77 28 63 0
-64 -106 -71 -22 0
-64 -106 -71 -57 0
-64 -106 -22 -57 0
-64 -71 -22 -57 0
-65 -107 -72 -23 0
-65 -107 -72 -58 0
-65 -107 -23 -58 0
-65 -72 -23 -58 0
-66 -108 -73 -24 0
-66 -108 -73 -59 0
-66 -108 -24 -59 0
-66 -73 -24 -59 0
-67 -109 -74 -25 0
-67 -109 -74 -60 0
-67 -109 -25 -60 0
-67 -74 -25 -60 0
-68 -110 -75 -26 0
-68 -110 -75 -61 0
-68 -110 -26 -61 0
-68 -75 -26 -61 0
-69 -111 -76 -27 0
-69 -111 -76 -62 0
-69 -111 -27 -62 0
-69 -76 -27 -62 0
-70 -112 -77 -28 0
-70 -112 -77 -63 0
-70 -112 -28 -63 0
-70 -77 -28 -63 0
-72 0
-73 0
-74 0
-75 0
-76 0
-77 0
71 0
113 78 29 64 0
-113 -78 0
-113 -29 0
-113 -64 0
-78 -29 0
-78 -64 0
-29 -64 0
-78 295 0
-79 296 0
-295 296 0
-295 -79 0
-80 297 0
-296 297 0
-296 -80 0
-81 298 0
-297 298 0
-297 -81 0
-82 299 0
-298 299 0
-298 -82 0
-83 300 0
-299 300 0
-299 -83 0
-300 -84 0
-78 120 71 0
-78 120 36 0
-78 71 36 0
-79 121 72 0
-79 121 37 0
-79 72 37 0
-80 122 73 0
-80 122 38 0
-80 73 38 0
-81 123 74 0
-81 123 39 0
-81 74 39 0
-82 124 75 0
-82 124 40 0
-82 75 40 0
-83 125 76 0
-83 125 41 0
-83 76 41 0
-84 126 77 0
-84 126 42 0
-84 77 42 0
-78 -120 -71 -36 0
-79 -121 -72 -37 0
-80 -122 -73 -38 0
-81 -123 -74 -39 0
-82 -124 -75 -40 0
-83 -125 -76 -41 0
-84 -126 -77 -42 0
-85 301 0
-86 302 0
-301 302 0
-301 -86 0
-87 303 0
-302 303 0
-302 -87 0
-88 304 0
-303 304 0
-303 -88 0
-89 305 0
-304 305 0
-304 -89 0
-90 306 0
-305 306 0
-305 -90 0
-306 -91 0
-85 127 92 0
-85 127 43 0
-85 92 43 0
-86 128 93 0
-86 128 44 0
-86 93 44 0
-87 129 94 0
-87 129 45 0
-87 94 45 0
-88 130 95 0
-88 130 46 0
-88 95 46 0
-89 131 96 0
-89 131 47 0
-89 96 47 0
-90 132 97 0
-90 132 48 0
-90 97 48 0
-91 133 98 0
-91 133 49 0
-91 98 49 0
-85 -127 -92 -43 0
-86 -128 -93 -44 0
-87 -129 -94 -45 0
-88 -130 -95 -46 0
-89 -131 -96 -47 0
-90 -132 -97 -48 0
-91 -133 -98 -49 0
-92 0
-93 0
-94 0
-96 0
-97 0
-98 0
95 0
137 102 53 88 0
-137 -102 0
-137 -53 0
-137 -88 0
-102 -53 0
-102 -88 0
-53 -88 0
-99 0
-100 0
-102 0
-103 0
-104 0
-105 0
101 0
143 108 59 94 0
-143 -108 0
-143 -59 0
-143 -94 0
-108 -59 0
-108 -94 0
-59 -94 0
-106 307 0
-107 308 0
-307 308 0
-307 -107 0
-108 309 0
-308 309 0
-308 -108 0
-109 310 0
-309 310 0
-309 -109 0
-110 311 0
-310 311 0
-310 -110 0
-111 312 0
-311 312 0
-311 -111 0
-312 -112 0
-106 148 113 64 0
-106 148 113 99 0
-106 148 64 99 0
-106 113 64 99 0
-107 149 114 65 0
-107 149 114 100 0
-107 149 65 100 0
-107 114 65 100 0
-108 150 115 66 0
-108 150 115 101 0
-108 150 66 101 0
-108 115 66 101 0
-109 151 116 67 0
-109 151 116 102 0
-109 151 67 102 0
-109 116 67 102 0
-110 152 117 68 0
-110 152 117 103 0
-110 152 68 103 0
-110 117 68 103 0
-111 153 118 69 0
-111 153 118 104 0
-111 153 69 104 0
-111 118 69 104 0
-112 154 119 70 0
-112 154 119 105 0
-112 154 70 105 0
-112 119 70 105 0
-106 -148 -113 -64 0
-106 -148 -113 -99 0
-106 -148 -64 -99 0
-106 -113 -64 -99 0
-107 -149 -114 -65 0
-107 -149 -114 -100 0
-107 -149 -65 -100 0
-107 -114 -65 -100 0
-108 -150 -115 -66 0
-108 -150 -115 -101 0
-108 -150 -66 -101 0
-108 -115 -66 -101 0
-109 -151 -116 -67 0
-109 -151 -116 -102 0
-109 -151 -67 -102 0
-109 -116 -67 -102 0
-110 -152 -117 -68 0
-110 -152 -117 -103 0
-110 -152 -68 -103 0
-110 -117 -68 -103 0
-111 -153 -118 -69 0
-111 -153 -118 -104 0
-111 -153 -69 -104 0
-111 -118 -69 -104 0
-112 -154 -119 -70 0
-112 -154 -119 -105 0
-112 -154 -70 -105 0
-112 -119 -70 -105 0
-113 0
-114 0
-116 0
-117 0
-118 0
-119 0
115 0
157 122 73 108 0
-157 -122 0
-157 -73 0
-157 -108 0
-122 -73 0
-122 -108 0
-73 -108 0
-120 313 0
-121 314 0
-313 314 0
-313 -121 0
-122 315 0
-314 315 0
-314 -122 0
-123 316 0
-315 316 0
-315 -123 0
-124 317 0
-316 317 0
-316 -124 0
-125 318 0
-317 318 0
-317 -125 0
-318 -126 0
-120 162 113 0
-120 162 78 0
-120 113 78 0
-121 163 114 0
-121 163 79 0
-121 114 79 0
-122 164 115 0
-122 164 80 0
-122 115 80 0
-123 165 116 0
-123 165 81 0
-123 116 81 0
-124 166 117 0
-124 166 82 0
-124 117 82 0
-125 167 118 0
-125 167 83 0
-125 118 83 0
-126 168 119 0
-126 168 84 0
-126 119 84 0
-120 -162 -113 -78 0
-121 -163 -114 -79 0
-122 -164 -115 -80 0
-123 -165 -116 -81 0
-124 -166 -117 -82 0
-125 -167 -118 -83 0
-126 -168 -119 -84 0
-127 319 0
-128 320 0
-319 320 0
-319 -128 0
-129 321 0
-320 321 0
-320 -129 0
-130 322 0
-321 322 0
-321 -130 0
-131 323 0
-322 323 0
-322 -131 0
-132 324 0
-323 324 0
-323 -132 0
-324 -133 0
-127 169 134 0
-127 169 85 0
-127 134 85 0
-128 170 135 0
-128 170 86 0
-128 135 86 0
-129 171 136 0
-129 171 87 0
-129 136 87 0
-130 172 137 0
-130 172 88 0
-130 137 88 0
-131 173 138 0
-131 173 89 0
-131 138 89 0
-132 174 139 0
-132 174 90 0
-132 139 90 0
-133 175 140 0
-133 175 91 0
-133 140 91 0
-127 -169 -134 -85 0
-128 -170 -135 -86 0
-129 -171 -136 -87 0
-130 -172 -137 -88 0
-131 -173 -138 -89 0
-132 -174 -139 -90 0
-133 -175 -140 -91 0
-134 0
-135 0
-136 0
-137 0
-138 0
-140 0
139 0
181 146 97 132 0
-181 -146 0
-181 -97 0
-181 -132 0
-146 -97 0
-146 -132 0
-97 -132 0
-141 0
-142 0
-143 0
-144 0
-145 0
-146 0
147 0
189 154 105 140 0
-189 -154 0
-189 -105 0
-189 -140 0
-154 -105 0
-154 -140 0
-105 -140 0
-148 325 0
-149 326 0
-325 326 0
-325 -149 0
-150 327 0
-326 327 0
-326 -150 0
-151 328 0
-327 328 0
-327 -151 0
-152 329 0
-328 329 0
-328 -152 0
-153 330 0
-329 330 0
-329 -153 0
-330 -154 0
-148 190 155 106 0
-148 190 155 141 0
-148 190 106 141 0
-148 155 106 141 0
-149 191 156 107 0
-149 191 156 142 0
-149 191 107 142 0
-149 156 107 142 0
-150 192 157 108 0
-150 192 157 143 0
-150 192 108 143 0
-150 157 108 143 0
-151 193 158 109 0
-151 193 158 144 0
-151 193 109 144 0
-151 158 109 144 0
-152 194 159 110 0
-152 194 159 145 0
-152 194 110 145 0
-152 159 110 145 0
-153 195 160 111 0
-153 195 160 146 0
-153 195 111 146 0
-153 160 111 146 0
-154 196 161 112 0
-154 196 161 147 0
-154 196 112 147 0
-154 161 112 147 0
-148 -190 -155 -106 0
-148 -190 -155 -141 0
-148 -190 -106 -141 0
-148 -155 -106 -141 0
-149 -191 -156 -107 0
-149 -191 -156 -142 0
-149 -191 -107 -142 0
-149 -156 -107 -142 0
-150 -192 -157 -108 0
-150 -192 -157 -143 0
-150 -192 -108 -143 0
-150 -157 -108 -143 0
-151 -193 -158 -109 0
-151 -193 -158 -144 0
-151 -193 -109 -144 0
-151 -158 -109 -144 0
-152 -194 -159 -110 0
-152 -194 -159 -145 0
-152 -194 -110 -145 0
-152 -159 -110 -145 0
-153 -195 -160 -111 0
-153 -195 -160 -146 0
-153 -195 -111 -146 0
-153 -160 -111 -146 0
-154 -196 -161 -112 0
-154 -196 -161 -147 0
-154 -196 -112 -147 0
-154 -161 -112 -147 0
-155 331 0
-156 332 0
-331 332 0
-331 -156 0
-157 333 0
-332 333 0
-332 -157 0
-158 334 0
-333 334 0
-333 -158 0
-159 335 0
-334 335 0
-334 -159 0
-160 336 0
-335 336 0
-335 -160 0
-336 -161 0
-155 197 162 113 0
-155 197 162 148 0
-155 197 113 148 0
-155 162 113 148 0
-156 198 163 114 0
-156 198 163 149 0
-156 198 114 149 0
-156 163 114 149 0
-157 199 164 115 0
-157 199 164 150 0
-157 199 115 150 0
-157 164 115 150 0
-158 200 165 116 0
-158 200 165 151 0
-158 200 116 151 0
-158 165 116 151 0
-159 201 166 117 0
-159 201 166 152 0
-159 201 117 152 0
-159 166 117 152 0
-160 202 167 118 0
-160 202 167 153 0
-160 202 118 153 0
-160 167 118 153 0
-161 203 168 119 0
-161 203 168 154 0
-161 203 119 154 0
-161 168 119 154 0
-155 -197 -162 -113 0
-155 -197 -162 -148 0
-155 -197 -113 -148 0
-155 -162 -113 -148 0
-156 -198 -163 -114 0
-156 -198 -163 -149 0
-156 -198 -114 -149 0
-156 -163 -114 -149 0
-157 -199 -164 -115 0
-157 -199 -164 -150 0
-157 -199 -115 -150 0
-157 -164 -115 -150 0
-158 -200 -165 -116 0
-158 -200 -165 -151 0
-158 -200 -116 -151 0
-158 -165 -116 -151 0
-159 -201 -166 -117 0
-159 -201 -166 -152 0
-159 -201 -117 -152 0
-159 -166 -117 -152 0
-160 -202 -167 -118 0
-160 -202 -167 -153 0
-160 -202 -118 -153 0
-160 -167 -118 -153 0
-161 -203 -168 -119 0
-161 -203 -168 -154 0
-161 -203 -119 -154 0
-161 -168 -119 -154 0
-162 337 0
-163 338 0
-337 338 0
-337 -163 0
-164 339 0
-338 339 0
-338 -164 0
-165 340 0
-339 340 0
-339 -165 0
-166 341 0
-340 341 0
-340 -166 0
-167 342 0
-341 342 0
-341 -167 0
-342 -168 0
-162 204 155 0
-162 204 120 0
-162 155 120 0
-163 205 156 0
-163 205 121 0
-163 156 121 0
-164 206 157 0
-164 206 122 0
-164 157 122 0
-165 207 158 0
-165 207 123 0
-165 158 123 0
-166 208 159 0
-166 208 124 0
-166 159 124 0
-167 209 160 0
-167 209 125 0
-167 160 125 0
-168 210 161 0
-168 210 126 0
-168 161 126 0
-162 -204 -155 -120 0
-163 -205 -156 -121 0
-164 -206 -157 -122 0
-165 -207 -158 -123 0
-166 -208 -159 -124 0
-167 -209 -160 -125 0
-168 -210 -161 -126 0
-169 343 0
-170 344 0
-343 344 0
-343 -170 0
-171 345 0
-344 345 0
-344 -171 0
-172 346 0
-345 346 0
-345 -172 0
-173 347 0
-346 347 0
-346 -173 0
-174 348 0
-347 348 0
-347 -174 0
-348 -175 0
-169 211 176 0
-169 211 127 0
-169 176 127 0
-170 212 177 0
-170 212 128 0
-170 177 128 0
-171 213 178 0
-171 213 129 0
-171 178 129 0
-172 214 179 0
-172 214 130 0
-172 179 130 0
-173 215 180 0
-173 215 131 0
-173 180 131 0
-174 216 181 0
-174 216 132 0
-174 181 132 0
-175 217 182 0
-175 217 133 0
-175 182 133 0
-169 -211 -176 -127 0
-170 -212 -177 -128 0
-171 -213 -178 -129 0
-172 -214 -179 -130 0
-173 -215 -180 -131 0
-174 -216 -181 -132 0
-175 -217 -182 -133 0
-176 0
-177 0
-178 0
-179 0
-181 0
-182 0
180 0
222 187 138 173 0
-222 -187 0
-222 -138 0
-222 -173 0
-187 -138 0
-187 -173 0
-138 -173 0
-183 349 0
-184 350 0
-349 350 0
-349 -184 0
-185 351 0
-350 351 0
-350 -185 0
-186 352 0
-351 352 0
-351 -186 0
-187 353 0
-352 353 0
-352 -187 0
-188 354 0
-353 354 0
-353 -188 0
-354 -189 0
-183 225 190 141 0
-183 225 190 176 0
-183 225 141 176 0
-183 190 141 176 0
-184 226 191 142 0
-184 226 191 177 0
-184 226 142 177 0
-184 191 142 177 0
-185 227 192 143 0
-185 227 192 178 0
-185 227 143 178 0
-185 192 143 178 0
-186 228 193 144 0
-186 228 193 179 0
-186 228 144 179 0
-186 193 144 179 0
-187 229 194 145 0
-187 229 194 180 0
-187 229 145 180 0
-187 194 145 180 0
-188 230 195 146 0
-188 230 195 181 0
-188 230 146 181 0
-188 195 146 181 0
-189 231 196 147 0
-189 231 196 182 0
-189 231 147 182 0
-189 196 147 182 0
-183 -225 -190 -141 0
-183 -225 -190 -176 0
-183 -225 -141 -176 0
-183 -190 -141 -176 0
-184 -226 -191 -142 0
-184 -226 -191 -177 0
-184 -226 -142 -177 0
-184 -191 -142 -177 0
-185 -227 -192 -143 0
-185 -227 -192 -178 0
-185 -227 -143 -178 0
-185 -192 -143 -178 0
-186 -228 -193 -144 0
-186 -228 -193 -179 0
-186 -228 -144 -179 0
-186 -193 -144 -179 0
-187 -229 -194 -145 0
-187 -229 -194 -180 0
-187 -229 -145 -180 0
-187 -194 -145 -180 0
-188 -230 -195 -146 0
-188 -230 -195 -181 0
-188 -230 -146 -181 0
-188 -195 -146 -181 0
-189 -231 -196 -147 0
-189 -231 -196 -182 0
-189 -231 -147 -182 0
-189 -196 -147 -182 0
-190 355 0
-191 356 0
-355 356 0
-355 -191 0
-192 357 0
-356 357 0
-356 -192 0
-193 358 0
-357 358 0
-357 -193 0
-194 359 0
-358 359 0
-358 -194 0
-195 360 0
-359 360 0
-359 -195 0
-360 -196 0
-190 232 197 148 0
-190 232 197 183 0
-190 232 148 183 0
-190 197 148 183 0
-191 233 198 149 0
-191 233 198 184 0
-191 233 149 184 0
-191 198 149 184 0
-192 234 199 150 0
-192 234 199 185 0
-192 234 150 185 0
-192 199 150 185 0
-193 235 200 151 0
-193 235 200 186 0
-193 235 151 186 0
-193 200 151 186 0
-194 236 201 152 0
-194 236 201 187 0
-194 236 152 187 0
-194 201 152 187 0
-195 237 202 153 0
-195 237 202 188 0
-195 237 153 188 0
-195 202 153 188 0
-196 238 203 154 0
-196 238 203 189 0
-196 238 154 189 0
-196 203 154 189 0
-190 -232 -197 -148 0
-190 -232 -197 -183 0
-190 -232 -148 -183 0
-190 -197 -148 -183 0
-191 -233 -198 -149 0
-191 -233 -198 -184 0
-191 -233 -149 -184 0
-191 -198 -149 -184 0
-192 -234 -199 -150 0
-192 -234 -199 -185 0
-192 -234 -150 -185 0
-192 -199 -150 -185 0
-193 -235 -200 -151 0
-193 -235 -200 -186 0
-193 -235 -151 -186 0
-193 -200 -151 -186 0
-194 -236 -201 -152 0
-194 -236 -201 -187 0
-194 -236 -152 -187 0
-194 -201 -152 -187 0
-195 -237 -202 -153 0
-195 -237 -202 -188 0
-195 -237 -153 -188 0
-195 -202 -153 -188 0
-196 -238 -203 -154 0
-196 -238 -203 -189 0
-196 -238 -154 -189 0
-196 -203 -154 -189 0
-197 0
-198 0
-199 0
-200 0
-201 0
-202 0
203 0
245 210 161 196 0
-245 -210 0
-245 -161 0
-245 -196 0
-210 -161 0
-210 -196 0
-161 -196 0
-204 361 0
-205 362 0
-361 362 0
-361 -205 0
-206 363 0
-362 363 0
-362 -206 0
-207 364 0
-363 364 0
-363 -207 0
-208 365 0
-364 365 0
-364 -208 0
-209 366 0
-365 366 0
-365 -209 0
-366 -210 0
-204 246 197 0
-204 246 162 0
-204 197 162 0
-205 247 198 0
-205 247 163 0
-205 198 163 0
-206 248 199 0
-206 248 164 0
-206 199 164 0
-207 249 200 0
-207 249 165 0
-207 200 165 0
-208 250 201 0
-208 250 166 0
-208 201 166 0
-209 251 202 0
-209 251 167 0
-209 202 167 0
-210 252 203 0
-210 252 168 0
-210 203 168 0
-204 -246 -197 -162 0
-205 -247 -198 -163 0
-206 -248 -199 -164 0
-207 -249 -200 -165 0
-208 -250 -201 -166 0
-209 -251 -202 -167 0
-210 -252 -203 -168 0
-211 367 0
-212 368 0
-367 368 0
-367 -212 0
-213 369 0
-368 369 0
-368 -213 0
-214 370 0
-369 370 0
-369 -214 0
-215 371 0
-370 371 0
-370 -215 0
-216 372 0
-371 372 0
-371 -216 0
-372 -217 0
-211 169 0
-211 218 0
-212 170 0
-212 219 0
-213 171 0
-213 220 0
-214 172 0
-214 221 0
-215 173 0
-215 222 0
-216 174 0
-216 223 0
-217 175 0
-217 224 0
-218 373 0
-219 374 0
-373 374 0
-373 -219 0
-220 375 0
-374 375 0
-374 -220 0
-221 376 0
-375 376 0
-375 -221 0
-222 377 0
-376 377 0
-376 -222 0
-223 378 0
-377 378 0
-377 -223 0
-378 -224 0
-218 176 225 0
-218 176 211 0
-218 225 211 0
-219 177 226 0
-219 177 212 0
-219 226 212 0
-220 178 227 0
-220 178 213 0
-220 227 213 0
-221 179 228 0
-221 179 214 0
-221 228 214 0
-222 180 229 0
-222 180 215 0
-222 229 215 0
-223 181 230 0
-223 181 216 0
-223 230 216 0
-224 182 231 0
-224 182 217 0
-224 231 217 0
-218 -176 -225 -211 0
-219 -177 -226 -212 0
-220 -178 -227 -213 0
-221 -179 -228 -214 0
-222 -180 -229 -215 0
-223 -181 -230 -216 0
-224 -182 -231 -217 0
-225 0
-226 0
-227 0
-228 0
-229 0
-231 0
230 0
188 237 223 0
-188 -237 0
-188 -223 0
-237 -223 0
-232 0
-233 0
-234 0
-235 0
-237 0
-238 0
236 0
194 243 229 0
-194 -243 0
-194 -229 0
-243 -229 0
-239 0
-241 0
-242 0
-243 0
-244 0
-245 0
240 0
198 247 233 0
-198 -247 0
-198 -233 0
-247 -233 0
-246 379 0
-247 380 0
-379 380 0
-379 -247 0
-248 381 0
-380 381 0
-380 -248 0
-249 382 0
-381 382 0
-381 -249 0
-250 383 0
-382 383 0
-382 -250 0
-251 384 0
-383 384 0
-383 -251 0
-384 -252 0
-246 204 0
-246 239 0
-247 205 0
-247 240 0
-248 206 0
-248 241 0
-249 207 0
-249 242 0
-250 208 0
-250 243 0
-251 209 0
-251 244 0
-252 210 0
-252 245 0